Instance Name : rc104
Date : 2022-07-19
Solution
Route 1 : 68 70 1 3 5 45 8 46 4 2 100
Route 2 : 34 31 29 27 26 28 30 32 33 50 91
Route 3 : 22 49 19 23 21 18 48 77 25 24
Route 4 : 61 44 39 38 37 35 36 40 43 42 81
Route 5 : 80 92 95 62 67 94 93 71 72 41 54 96
Route 6 : 85 63 89 76 84 51 20 64 56
Route 7 : 66 83 99 59 97 75 58 57
Route 8 : 12 14 15 11 9 87 74 86 52 65 90
Route 9 : 69 98 53 47 17 16 13 10 82
Route 10 : 88 60 78 73 79 7 6 55
